(set-info :Origin "This instance was generated by: BanditFuzz-- an RL fuzzer for SMT solvers" )
(set-info :Author "Joe Scott, Fed Mora, Vijay Ganesh" )
(set-info :Contact "Joe Scott, joseph.scott@uwaterloo.ca")
(set-logic QF_BV)
(declare-const bool_0 Bool)
(declare-const bool_1 Bool)
(declare-const bool_2 Bool)
(declare-const bool_3 Bool)
(declare-const bool_4 Bool)
(declare-const bv_0 (_ BitVec 32))
(declare-const bv_1 (_ BitVec 32))
(declare-const bv_2 (_ BitVec 32))
(declare-const bv_3 (_ BitVec 32))
(declare-const bv_4 (_ BitVec 32))
(assert (xor (bvult (bvshl bv_1 #xbbe78354 ) (bvxor #x38521c2a  bv_4)) (bvsgt (bvsub bv_2 bv_4) (bvsub bv_2 #x0789fc18 ))))
(assert (bvugt (bvsrem (bvxor bv_3 bv_2) (bvnor bv_2 #x6cc16a9b )) (bvand (bvxor #x0ef3c32e  #x468bb0f2 ) (bvudiv bv_0 #x0a1ab380 ))))
(assert (xor (bvsle (bvor #x8d3b200e  bv_0) (bvadd #x288cf64d  bv_1)) (bvuge (bvxnor bv_2 #x1289ead5 ) (bvsrem bv_0 bv_3))))
(assert (bvsle (bvxor (bvurem #x2668b218  #x1e6d4476 ) (bvor #x6a8160e3  #xf34e2de4 )) (bvsub (bvxor #xe5ee9033  bv_0) (bvxnor bv_1 #x39ed64d2 ))))
(assert (bvugt (bvmul (bvurem bv_4 bv_0) (bvudiv #x9b7f8a7c  bv_3)) (bvor (bvmul #x27c39896  #x0025c9b1 ) (bvor bv_2 #x9b12f9c7 ))))
(check-sat)
(exit)
